p cnf 430 1488
-191 -26 0
-191 -18 0
-191 -115 0
-191 125 0
-191 29 0
191 26 18 115 -125 -29 0
-192 -160 0
-192 -88 0
-192 73 0
-192 123 0
-192 -127 0
192 160 88 -73 -123 127 0
-193 177 0
-193 -91 0
-193 -5 0
-193 39 0
-193 68 0
193 -177 91 5 -39 -68 0
-194 166 0
-194 -71 0
-194 144 0
-194 140 0
-194 16 0
194 -166 71 -144 -140 -16 0
-195 -26 0
-195 -108 0
-195 48 0
-195 -11 0
-195 81 0
195 26 108 -48 11 -81 0
191 192 193 194 195 0
-196 -5 0
-196 15 0
-196 -135 0
-196 -189 0
-196 -54 0
196 5 -15 135 189 54 0
-197 28 0
-197 -142 0
-197 -8 0
-197 -68 0
-197 -141 0
197 -28 142 8 68 141 0
-198 -129 0
-198 31 0
-198 -7 0
-198 -162 0
-198 -45 0
198 129 -31 7 162 45 0
-199 -39 0
-199 151 0
-199 -156 0
-199 15 0
-199 47 0
199 39 -151 156 -15 -47 0
-200 -29 0
-200 -132 0
-200 114 0
-200 -30 0
-200 143 0
200 29 132 -114 30 -143 0
196 197 198 199 200 0
-201 75 0
-201 174 0
-201 -172 0
-201 -8 0
-201 -138 0
201 -75 -174 172 8 138 0
-202 190 0
-202 -78 0
-202 84 0
-202 -72 0
-202 79 0
202 -190 78 -84 72 -79 0
-203 -178 0
-203 -13 0
-203 -157 0
-203 91 0
-203 126 0
203 178 13 157 -91 -126 0
-204 51 0
-204 126 0
-204 9 0
-204 -39 0
-204 -23 0
204 -51 -126 -9 39 23 0
-205 82 0
-205 -149 0
-205 76 0
-205 -172 0
-205 -10 0
205 -82 149 -76 172 10 0
201 202 203 204 205 0
-206 7 0
-206 -184 0
-206 -33 0
-206 -163 0
-206 149 0
206 -7 184 33 163 -149 0
-207 -5 0
-207 -27 0
-207 189 0
-207 34 0
-207 45 0
207 5 27 -189 -34 -45 0
-208 45 0
-208 20 0
-208 21 0
-208 41 0
-208 -142 0
208 -45 -20 -21 -41 142 0
-209 -37 0
-209 -121 0
-209 -107 0
-209 120 0
-209 -175 0
209 37 121 107 -120 175 0
-210 132 0
-210 39 0
-210 168 0
-210 109 0
-210 127 0
210 -132 -39 -168 -109 -127 0
206 207 208 209 210 0
-211 -120 0
-211 170 0
-211 189 0
-211 112 0
-211 80 0
211 120 -170 -189 -112 -80 0
-212 26 0
-212 -87 0
-212 52 0
-212 69 0
-212 -27 0
212 -26 87 -52 -69 27 0
-213 74 0
-213 -91 0
-213 -184 0
-213 126 0
-213 93 0
213 -74 91 184 -126 -93 0
-214 187 0
-214 109 0
-214 89 0
-214 -66 0
-214 97 0
214 -187 -109 -89 66 -97 0
-215 22 0
-215 115 0
-215 -97 0
-215 177 0
-215 94 0
215 -22 -115 97 -177 -94 0
211 212 213 214 215 0
-216 -5 0
-216 -126 0
-216 -38 0
-216 82 0
-216 -65 0
216 5 126 38 -82 65 0
-217 156 0
-217 -160 0
-217 84 0
-217 137 0
-217 -64 0
217 -156 160 -84 -137 64 0
-218 127 0
-218 159 0
-218 -174 0
-218 -120 0
-218 140 0
218 -127 -159 174 120 -140 0
-219 -143 0
-219 104 0
-219 40 0
-219 137 0
-219 -171 0
219 143 -104 -40 -137 171 0
-220 -116 0
-220 -34 0
-220 -21 0
-220 177 0
-220 -119 0
220 116 34 21 -177 119 0
216 217 218 219 220 0
-221 -84 0
-221 74 0
-221 70 0
-221 46 0
-221 120 0
221 84 -74 -70 -46 -120 0
-222 -76 0
-222 68 0
-222 53 0
-222 9 0
-222 -116 0
222 76 -68 -53 -9 116 0
-223 170 0
-223 -37 0
-223 -173 0
-223 -16 0
-223 -188 0
223 -170 37 173 16 188 0
-224 -172 0
-224 24 0
-224 70 0
-224 -90 0
-224 -168 0
224 172 -24 -70 90 168 0
-225 -118 0
-225 -165 0
-225 -175 0
-225 131 0
-225 -75 0
225 118 165 175 -131 75 0
221 222 223 224 225 0
-226 165 0
-226 124 0
-226 -100 0
-226 -102 0
-226 -79 0
226 -165 -124 100 102 79 0
-227 -79 0
-227 -78 0
-227 26 0
-227 -124 0
-227 -92 0
227 79 78 -26 124 92 0
-228 -172 0
-228 145 0
-228 84 0
-228 -141 0
-228 157 0
228 172 -145 -84 141 -157 0
-229 -123 0
-229 19 0
-229 -135 0
-229 -136 0
-229 -186 0
229 123 -19 135 136 186 0
-230 -104 0
-230 59 0
-230 -134 0
-230 19 0
-230 -180 0
230 104 -59 134 -19 180 0
226 227 228 229 230 0
-231 -190 0
-231 -25 0
-231 -186 0
-231 97 0
-231 -158 0
231 190 25 186 -97 158 0
-232 32 0
-232 -98 0
-232 166 0
-232 175 0
-232 -38 0
232 -32 98 -166 -175 38 0
-233 -161 0
-233 -100 0
-233 -168 0
-233 -90 0
-233 27 0
233 161 100 168 90 -27 0
-234 -150 0
-234 75 0
-234 -27 0
-234 40 0
-234 60 0
234 150 -75 27 -40 -60 0
-235 -76 0
-235 -64 0
-235 66 0
-235 163 0
-235 7 0
235 76 64 -66 -163 -7 0
231 232 233 234 235 0
-236 30 0
-236 171 0
-236 -189 0
-236 -117 0
-236 -98 0
236 -30 -171 189 117 98 0
-237 -19 0
-237 78 0
-237 -77 0
-237 140 0
-237 -56 0
237 19 -78 77 -140 56 0
-238 67 0
-238 141 0
-238 82 0
-238 74 0
-238 -119 0
238 -67 -141 -82 -74 119 0
-239 26 0
-239 60 0
-239 -185 0
-239 168 0
-239 62 0
239 -26 -60 185 -168 -62 0
-240 -7 0
-240 -31 0
-240 148 0
-240 71 0
-240 47 0
240 7 31 -148 -71 -47 0
236 237 238 239 240 0
-241 -162 0
-241 129 0
-241 -136 0
-241 -65 0
-241 172 0
241 162 -129 136 65 -172 0
-242 38 0
-242 -35 0
-242 133 0
-242 104 0
-242 105 0
242 -38 35 -133 -104 -105 0
-243 24 0
-243 116 0
-243 -13 0
-243 87 0
-243 77 0
243 -24 -116 13 -87 -77 0
-244 -178 0
-244 152 0
-244 -70 0
-244 -80 0
-244 84 0
244 178 -152 70 80 -84 0
-245 -43 0
-245 49 0
-245 114 0
-245 -10 0
-245 -22 0
245 43 -49 -114 10 22 0
241 242 243 244 245 0
-246 11 0
-246 -155 0
-246 -178 0
-246 -167 0
-246 169 0
246 -11 155 178 167 -169 0
-247 122 0
-247 75 0
-247 37 0
-247 -30 0
-247 -66 0
247 -122 -75 -37 30 66 0
-248 -21 0
-248 -15 0
-248 -118 0
-248 -79 0
-248 5 0
248 21 15 118 79 -5 0
-249 66 0
-249 -19 0
-249 150 0
-249 -137 0
-249 -87 0
249 -66 19 -150 137 87 0
-250 124 0
-250 -64 0
-250 -144 0
-250 -7 0
-250 -139 0
250 -124 64 144 7 139 0
246 247 248 249 250 0
-251 -96 0
-251 -107 0
-251 -88 0
-251 -1 0
-251 74 0
251 96 107 88 1 -74 0
-252 -140 0
-252 105 0
-252 137 0
-252 49 0
-252 80 0
252 140 -105 -137 -49 -80 0
-253 -40 0
-253 75 0
-253 107 0
-253 182 0
-253 -9 0
253 40 -75 -107 -182 9 0
-254 167 0
-254 -24 0
-254 86 0
-254 135 0
-254 -154 0
254 -167 24 -86 -135 154 0
-255 79 0
-255 2 0
-255 36 0
-255 80 0
-255 -122 0
255 -79 -2 -36 -80 122 0
251 252 253 254 255 0
-256 183 0
-256 30 0
-256 74 0
-256 44 0
-256 -85 0
256 -183 -30 -74 -44 85 0
-257 -85 0
-257 135 0
-257 -109 0
-257 -60 0
-257 -88 0
257 85 -135 109 60 88 0
-258 -121 0
-258 -185 0
-258 -90 0
-258 -12 0
-258 -157 0
258 121 185 90 12 157 0
-259 113 0
-259 32 0
-259 90 0
-259 190 0
-259 102 0
259 -113 -32 -90 -190 -102 0
-260 120 0
-260 182 0
-260 81 0
-260 63 0
-260 87 0
260 -120 -182 -81 -63 -87 0
256 257 258 259 260 0
-261 21 0
-261 -72 0
-261 -107 0
-261 -153 0
-261 -183 0
261 -21 72 107 153 183 0
-262 -47 0
-262 176 0
-262 -147 0
-262 6 0
-262 -164 0
262 47 -176 147 -6 164 0
-263 -6 0
-263 -7 0
-263 -58 0
-263 -29 0
-263 -168 0
263 6 7 58 29 168 0
-264 155 0
-264 -181 0
-264 140 0
-264 30 0
-264 -152 0
264 -155 181 -140 -30 152 0
-265 123 0
-265 42 0
-265 14 0
-265 44 0
-265 30 0
265 -123 -42 -14 -44 -30 0
261 262 263 264 265 0
-266 30 0
-266 -153 0
-266 188 0
-266 4 0
-266 -87 0
266 -30 153 -188 -4 87 0
-267 104 0
-267 -172 0
-267 -123 0
-267 50 0
-267 -8 0
267 -104 172 123 -50 8 0
-268 18 0
-268 167 0
-268 -27 0
-268 46 0
-268 -47 0
268 -18 -167 27 -46 47 0
-269 -110 0
-269 -99 0
-269 -24 0
-269 -93 0
-269 -142 0
269 110 99 24 93 142 0
-270 175 0
-270 -170 0
-270 119 0
-270 53 0
-270 161 0
270 -175 170 -119 -53 -161 0
266 267 268 269 270 0
-271 118 0
-271 -34 0
-271 149 0
-271 -104 0
-271 -20 0
271 -118 34 -149 104 20 0
-272 -174 0
-272 -15 0
-272 58 0
-272 96 0
-272 -178 0
272 174 15 -58 -96 178 0
-273 -166 0
-273 -185 0
-273 -108 0
-273 -90 0
-273 155 0
273 166 185 108 90 -155 0
-274 -76 0
-274 51 0
-274 142 0
-274 -69 0
-274 -47 0
274 76 -51 -142 69 47 0
-275 37 0
-275 60 0
-275 -35 0
-275 76 0
-275 -3 0
275 -37 -60 35 -76 3 0
271 272 273 274 275 0
-276 78 0
-276 -96 0
-276 140 0
-276 158 0
-276 105 0
276 -78 96 -140 -158 -105 0
-277 43 0
-277 13 0
-277 -185 0
-277 -59 0
-277 150 0
277 -43 -13 185 59 -150 0
-278 18 0
-278 10 0
-278 -96 0
-278 -134 0
-278 -76 0
278 -18 -10 96 134 76 0
-279 118 0
-279 35 0
-279 70 0
-279 -136 0
-279 -113 0
279 -118 -35 -70 136 113 0
-280 188 0
-280 19 0
-280 87 0
-280 -77 0
-280 123 0
280 -188 -19 -87 77 -123 0
276 277 278 279 280 0
-281 133 0
-281 55 0
-281 186 0
-281 -124 0
-281 -58 0
281 -133 -55 -186 124 58 0
-282 -19 0
-282 160 0
-282 126 0
-282 -50 0
-282 -33 0
282 19 -160 -126 50 33 0
-283 -121 0
-283 113 0
-283 81 0
-283 -13 0
-283 -106 0
283 121 -113 -81 13 106 0
-284 -57 0
-284 -71 0
-284 101 0
-284 96 0
-284 131 0
284 57 71 -101 -96 -131 0
-285 33 0
-285 168 0
-285 60 0
-285 -171 0
-285 -101 0
285 -33 -168 -60 171 101 0
281 282 283 284 285 0
-286 -36 0
-286 -55 0
-286 9 0
-286 82 0
-286 -141 0
286 36 55 -9 -82 141 0
-287 66 0
-287 -30 0
-287 139 0
-287 187 0
-287 -25 0
287 -66 30 -139 -187 25 0
-288 -146 0
-288 132 0
-288 -1 0
-288 24 0
-288 88 0
288 146 -132 1 -24 -88 0
-289 29 0
-289 -79 0
-289 -23 0
-289 162 0
-289 74 0
289 -29 79 23 -162 -74 0
-290 -28 0
-290 -176 0
-290 -153 0
-290 43 0
-290 112 0
290 28 176 153 -43 -112 0
286 287 288 289 290 0
-291 111 0
-291 -71 0
-291 -98 0
-291 112 0
-291 59 0
291 -111 71 98 -112 -59 0
-292 -74 0
-292 93 0
-292 6 0
-292 51 0
-292 138 0
292 74 -93 -6 -51 -138 0
-293 105 0
-293 -23 0
-293 -88 0
-293 184 0
-293 -17 0
293 -105 23 88 -184 17 0
-294 89 0
-294 -104 0
-294 45 0
-294 -100 0
-294 -30 0
294 -89 104 -45 100 30 0
-295 -158 0
-295 120 0
-295 -68 0
-295 -123 0
-295 -59 0
295 158 -120 68 123 59 0
291 292 293 294 295 0
-296 -168 0
-296 -102 0
-296 -37 0
-296 -178 0
-296 60 0
296 168 102 37 178 -60 0
-297 -134 0
-297 -180 0
-297 -90 0
-297 -142 0
-297 -147 0
297 134 180 90 142 147 0
-298 147 0
-298 -118 0
-298 -133 0
-298 66 0
-298 79 0
298 -147 118 133 -66 -79 0
-299 -145 0
-299 -46 0
-299 -133 0
-299 174 0
-299 108 0
299 145 46 133 -174 -108 0
-300 114 0
-300 -159 0
-300 -189 0
-300 -178 0
-300 116 0
300 -114 159 189 178 -116 0
296 297 298 299 300 0
-301 154 0
-301 -73 0
-301 -144 0
-301 38 0
-301 36 0
301 -154 73 144 -38 -36 0
-302 -159 0
-302 178 0
-302 134 0
-302 155 0
-302 -73 0
302 159 -178 -134 -155 73 0
-303 49 0
-303 172 0
-303 182 0
-303 163 0
-303 -134 0
303 -49 -172 -182 -163 134 0
-304 173 0
-304 -41 0
-304 -9 0
-304 20 0
-304 -186 0
304 -173 41 9 -20 186 0
-305 -13 0
-305 -22 0
-305 -166 0
-305 26 0
-305 -169 0
305 13 22 166 -26 169 0
301 302 303 304 305 0
-306 -71 0
-306 -73 0
-306 17 0
-306 46 0
-306 -137 0
306 71 73 -17 -46 137 0
-307 -34 0
-307 -153 0
-307 23 0
-307 -160 0
-307 127 0
307 34 153 -23 160 -127 0
-308 186 0
-308 -97 0
-308 179 0
-308 27 0
-308 -5 0
308 -186 97 -179 -27 5 0
-309 152 0
-309 14 0
-309 -106 0
-309 -52 0
-309 12 0
309 -152 -14 106 52 -12 0
-310 72 0
-310 58 0
-310 -21 0
-310 151 0
-310 -85 0
310 -72 -58 21 -151 85 0
306 307 308 309 310 0
-311 149 0
-311 77 0
-311 -59 0
-311 144 0
-311 52 0
311 -149 -77 59 -144 -52 0
-312 32 0
-312 -177 0
-312 -85 0
-312 46 0
-312 -48 0
312 -32 177 85 -46 48 0
-313 -155 0
-313 101 0
-313 -36 0
-313 -26 0
-313 170 0
313 155 -101 36 26 -170 0
-314 130 0
-314 186 0
-314 189 0
-314 67 0
-314 -51 0
314 -130 -186 -189 -67 51 0
-315 6 0
-315 -134 0
-315 144 0
-315 -55 0
-315 -161 0
315 -6 134 -144 55 161 0
311 312 313 314 315 0
-316 -151 0
-316 146 0
-316 122 0
-316 127 0
-316 -128 0
316 151 -146 -122 -127 128 0
-317 -137 0
-317 -90 0
-317 -65 0
-317 -10 0
-317 118 0
317 137 90 65 10 -118 0
-318 125 0
-318 53 0
-318 27 0
-318 170 0
-318 144 0
318 -125 -53 -27 -170 -144 0
-319 35 0
-319 159 0
-319 10 0
-319 -51 0
-319 -145 0
319 -35 -159 -10 51 145 0
-320 115 0
-320 -106 0
-320 -80 0
-320 4 0
-320 -58 0
320 -115 106 80 -4 58 0
316 317 318 319 320 0
-321 92 0
-321 -2 0
-321 -142 0
-321 -118 0
-321 102 0
321 -92 2 142 118 -102 0
-322 -133 0
-322 -91 0
-322 154 0
-322 -159 0
-322 9 0
322 133 91 -154 159 -9 0
-323 -156 0
-323 149 0
-323 124 0
-323 164 0
-323 -6 0
323 156 -149 -124 -164 6 0
-324 43 0
-324 -155 0
-324 158 0
-324 -61 0
-324 54 0
324 -43 155 -158 61 -54 0
-325 -176 0
-325 -77 0
-325 -13 0
-325 101 0
-325 120 0
325 176 77 13 -101 -120 0
321 322 323 324 325 0
-326 140 0
-326 -63 0
-326 91 0
-326 -131 0
-326 -87 0
326 -140 63 -91 131 87 0
-327 167 0
-327 88 0
-327 127 0
-327 -106 0
-327 -36 0
327 -167 -88 -127 106 36 0
-328 188 0
-328 54 0
-328 52 0
-328 -168 0
-328 183 0
328 -188 -54 -52 168 -183 0
-329 4 0
-329 -91 0
-329 -60 0
-329 -107 0
-329 1 0
329 -4 91 60 107 -1 0
-330 49 0
-330 175 0
-330 119 0
-330 58 0
-330 71 0
330 -49 -175 -119 -58 -71 0
326 327 328 329 330 0
-331 146 0
-331 -82 0
-331 115 0
-331 -163 0
-331 -120 0
331 -146 82 -115 163 120 0
-332 30 0
-332 -18 0
-332 -97 0
-332 -12 0
-332 155 0
332 -30 18 97 12 -155 0
-333 33 0
-333 88 0
-333 -90 0
-333 -21 0
-333 106 0
333 -33 -88 90 21 -106 0
-334 -28 0
-334 -29 0
-334 72 0
-334 170 0
-334 1 0
334 28 29 -72 -170 -1 0
-335 27 0
-335 164 0
-335 -38 0
-335 40 0
-335 124 0
335 -27 -164 38 -40 -124 0
331 332 333 334 335 0
-336 -89 0
-336 81 0
-336 12 0
-336 20 0
-336 -133 0
336 89 -81 -12 -20 133 0
-337 -178 0
-337 115 0
-337 -183 0
-337 -66 0
-337 -185 0
337 178 -115 183 66 185 0
-338 160 0
-338 72 0
-338 166 0
-338 7 0
-338 68 0
338 -160 -72 -166 -7 -68 0
-339 -143 0
-339 -90 0
-339 -33 0
-339 -185 0
-339 42 0
339 143 90 33 185 -42 0
-340 126 0
-340 -164 0
-340 -42 0
-340 165 0
-340 75 0
340 -126 164 42 -165 -75 0
336 337 338 339 340 0
-341 -171 0
-341 190 0
-341 -9 0
-341 -154 0
-341 102 0
341 171 -190 9 154 -102 0
-342 -173 0
-342 -29 0
-342 172 0
-342 -181 0
-342 85 0
342 173 29 -172 181 -85 0
-343 -44 0
-343 -187 0
-343 29 0
-343 -155 0
-343 -103 0
343 44 187 -29 155 103 0
-344 130 0
-344 113 0
-344 -173 0
-344 -150 0
-344 45 0
344 -130 -113 173 150 -45 0
-345 -65 0
-345 -113 0
-345 -68 0
-345 -32 0
-345 -106 0
345 65 113 68 32 106 0
341 342 343 344 345 0
-346 42 0
-346 113 0
-346 -149 0
-346 -15 0
-346 139 0
346 -42 -113 149 15 -139 0
-347 -163 0
-347 -183 0
-347 -62 0
-347 109 0
-347 84 0
347 163 183 62 -109 -84 0
-348 -59 0
-348 42 0
-348 -99 0
-348 164 0
-348 101 0
348 59 -42 99 -164 -101 0
-349 -177 0
-349 -20 0
-349 -158 0
-349 13 0
-349 -163 0
349 177 20 158 -13 163 0
-350 -72 0
-350 106 0
-350 -24 0
-350 20 0
-350 182 0
350 72 -106 24 -20 -182 0
346 347 348 349 350 0
-351 -38 0
-351 67 0
-351 -177 0
-351 -58 0
-351 -17 0
351 38 -67 177 58 17 0
-352 23 0
-352 187 0
-352 158 0
-352 156 0
-352 -164 0
352 -23 -187 -158 -156 164 0
-353 69 0
-353 125 0
-353 169 0
-353 76 0
-353 -188 0
353 -69 -125 -169 -76 188 0
-354 -188 0
-354 21 0
-354 -91 0
-354 9 0
-354 -159 0
354 188 -21 91 -9 159 0
-355 -158 0
-355 -175 0
-355 51 0
-355 150 0
-355 160 0
355 158 175 -51 -150 -160 0
351 352 353 354 355 0
-356 175 0
-356 -156 0
-356 -101 0
-356 -183 0
-356 190 0
356 -175 156 101 183 -190 0
-357 -105 0
-357 -92 0
-357 145 0
-357 -156 0
-357 189 0
357 105 92 -145 156 -189 0
-358 80 0
-358 161 0
-358 27 0
-358 81 0
-358 102 0
358 -80 -161 -27 -81 -102 0
-359 -49 0
-359 92 0
-359 -42 0
-359 38 0
-359 179 0
359 49 -92 42 -38 -179 0
-360 33 0
-360 -148 0
-360 -126 0
-360 145 0
-360 17 0
360 -33 148 126 -145 -17 0
356 357 358 359 360 0
-361 -165 0
-361 -89 0
-361 -163 0
-361 49 0
-361 2 0
361 165 89 163 -49 -2 0
-362 16 0
-362 186 0
-362 130 0
-362 -157 0
-362 -76 0
362 -16 -186 -130 157 76 0
-363 32 0
-363 169 0
-363 -51 0
-363 120 0
-363 -181 0
363 -32 -169 51 -120 181 0
-364 27 0
-364 -87 0
-364 94 0
-364 50 0
-364 1 0
364 -27 87 -94 -50 -1 0
-365 16 0
-365 54 0
-365 -146 0
-365 -12 0
-365 -39 0
365 -16 -54 146 12 39 0
361 362 363 364 365 0
-366 107 0
-366 -65 0
-366 40 0
-366 -33 0
-366 -29 0
366 -107 65 -40 33 29 0
-367 -98 0
-367 48 0
-367 5 0
-367 33 0
-367 -138 0
367 98 -48 -5 -33 138 0
-368 179 0
-368 1 0
-368 15 0
-368 156 0
-368 -145 0
368 -179 -1 -15 -156 145 0
-369 -36 0
-369 105 0
-369 118 0
-369 -151 0
-369 -148 0
369 36 -105 -118 151 148 0
-370 145 0
-370 113 0
-370 165 0
-370 109 0
-370 71 0
370 -145 -113 -165 -109 -71 0
366 367 368 369 370 0
-371 122 0
-371 -154 0
-371 -29 0
-371 -53 0
-371 5 0
371 -122 154 29 53 -5 0
-372 -189 0
-372 -165 0
-372 123 0
-372 42 0
-372 64 0
372 189 165 -123 -42 -64 0
-373 64 0
-373 124 0
-373 117 0
-373 -5 0
-373 -151 0
373 -64 -124 -117 5 151 0
-374 -146 0
-374 175 0
-374 31 0
-374 -50 0
-374 -129 0
374 146 -175 -31 50 129 0
-375 15 0
-375 125 0
-375 -103 0
-375 4 0
-375 -157 0
375 -15 -125 103 -4 157 0
371 372 373 374 375 0
-376 81 0
-376 168 0
-376 -109 0
-376 117 0
-376 -34 0
376 -81 -168 109 -117 34 0
-377 -116 0
-377 92 0
-377 79 0
-377 136 0
-377 62 0
377 116 -92 -79 -136 -62 0
-378 -173 0
-378 143 0
-378 -8 0
-378 -108 0
-378 -118 0
378 173 -143 8 108 118 0
-379 25 0
-379 50 0
-379 -96 0
-379 -74 0
-379 176 0
379 -25 -50 96 74 -176 0
-380 -49 0
-380 62 0
-380 -34 0
-380 100 0
-380 -172 0
380 49 -62 34 -100 172 0
376 377 378 379 380 0
-381 1 0
-381 -130 0
-381 -146 0
-381 176 0
-381 41 0
381 -1 130 146 -176 -41 0
-382 -70 0
-382 74 0
-382 -168 0
-382 116 0
-382 -110 0
382 70 -74 168 -116 110 0
-383 -100 0
-383 164 0
-383 174 0
-383 -142 0
-383 -85 0
383 100 -164 -174 142 85 0
-384 168 0
-384 -142 0
-384 -87 0
-384 -152 0
-384 96 0
384 -168 142 87 152 -96 0
-385 -11 0
-385 133 0
-385 170 0
-385 81 0
-385 -109 0
385 11 -133 -170 -81 109 0
381 382 383 384 385 0
-386 -190 0
-386 41 0
-386 -89 0
-386 -21 0
-386 -60 0
386 190 -41 89 21 60 0
-387 -37 0
-387 2 0
-387 168 0
-387 49 0
-387 165 0
387 37 -2 -168 -49 -165 0
-388 59 0
-388 74 0
-388 -87 0
-388 -166 0
-388 -38 0
388 -59 -74 87 166 38 0
-389 23 0
-389 -50 0
-389 -72 0
-389 130 0
-389 -110 0
389 -23 50 72 -130 110 0
-390 -83 0
-390 7 0
-390 -170 0
-390 -190 0
-390 -69 0
390 83 -7 170 190 69 0
386 387 388 389 390 0
-391 -144 0
-391 -60 0
-391 -106 0
-391 128 0
-391 90 0
391 144 60 106 -128 -90 0
-392 45 0
-392 69 0
-392 -53 0
-392 70 0
-392 -32 0
392 -45 -69 53 -70 32 0
-393 -158 0
-393 -18 0
-393 148 0
-393 113 0
-393 142 0
393 158 18 -148 -113 -142 0
-394 121 0
-394 -75 0
-394 95 0
-394 5 0
-394 -109 0
394 -121 75 -95 -5 109 0
-395 -155 0
-395 27 0
-395 -177 0
-395 64 0
-395 142 0
395 155 -27 177 -64 -142 0
391 392 393 394 395 0
-396 62 0
-396 -77 0
-396 18 0
-396 130 0
-396 -115 0
396 -62 77 -18 -130 115 0
-397 -2 0
-397 75 0
-397 100 0
-397 -26 0
-397 -32 0
397 2 -75 -100 26 32 0
-398 -56 0
-398 16 0
-398 142 0
-398 -9 0
-398 105 0
398 56 -16 -142 9 -105 0
-399 84 0
-399 81 0
-399 -97 0
-399 -30 0
-399 118 0
399 -84 -81 97 30 -118 0
-400 -76 0
-400 -33 0
-400 62 0
-400 -178 0
-400 -170 0
400 76 33 -62 178 170 0
396 397 398 399 400 0
-401 145 0
-401 87 0
-401 -128 0
-401 86 0
-401 -148 0
401 -145 -87 128 -86 148 0
-402 13 0
-402 -90 0
-402 -67 0
-402 -44 0
-402 -105 0
402 -13 90 67 44 105 0
-403 -180 0
-403 79 0
-403 -46 0
-403 -147 0
-403 -23 0
403 180 -79 46 147 23 0
-404 -73 0
-404 -114 0
-404 113 0
-404 -54 0
-404 -116 0
404 73 114 -113 54 116 0
-405 -41 0
-405 -140 0
-405 -82 0
-405 84 0
-405 149 0
405 41 140 82 -84 -149 0
401 402 403 404 405 0
-406 -47 0
-406 141 0
-406 -183 0
-406 179 0
-406 -116 0
406 47 -141 183 -179 116 0
-407 -185 0
-407 -147 0
-407 -163 0
-407 -52 0
-407 -93 0
407 185 147 163 52 93 0
-408 -77 0
-408 180 0
-408 81 0
-408 3 0
-408 102 0
408 77 -180 -81 -3 -102 0
-409 16 0
-409 120 0
-409 -110 0
-409 -139 0
-409 43 0
409 -16 -120 110 139 -43 0
-410 64 0
-410 -57 0
-410 -54 0
-410 91 0
-410 152 0
410 -64 57 54 -91 -152 0
406 407 408 409 410 0
-411 60 0
-411 -68 0
-411 130 0
-411 155 0
-411 183 0
411 -60 68 -130 -155 -183 0
-412 174 0
-412 64 0
-412 -137 0
-412 -29 0
-412 182 0
412 -174 -64 137 29 -182 0
-413 -49 0
-413 -1 0
-413 -123 0
-413 94 0
-413 144 0
413 49 1 123 -94 -144 0
-414 -114 0
-414 110 0
-414 -92 0
-414 76 0
-414 117 0
414 114 -110 92 -76 -117 0
-415 -115 0
-415 104 0
-415 -98 0
-415 -130 0
-415 52 0
415 115 -104 98 130 -52 0
411 412 413 414 415 0
-416 79 0
-416 -105 0
-416 -37 0
-416 -8 0
-416 117 0
416 -79 105 37 8 -117 0
-417 -165 0
-417 -77 0
-417 10 0
-417 -181 0
-417 54 0
417 165 77 -10 181 -54 0
-418 -51 0
-418 31 0
-418 69 0
-418 -50 0
-418 176 0
418 51 -31 -69 50 -176 0
-419 172 0
-419 -20 0
-419 -94 0
-419 48 0
-419 -124 0
419 -172 20 94 -48 124 0
-420 134 0
-420 142 0
-420 7 0
-420 -146 0
-420 -151 0
420 -134 -142 -7 146 151 0
416 417 418 419 420 0
-421 140 0
-421 10 0
-421 -17 0
-421 127 0
-421 -85 0
421 -140 -10 17 -127 85 0
-422 -176 0
-422 -167 0
-422 43 0
-422 -131 0
-422 47 0
422 176 167 -43 131 -47 0
-423 77 0
-423 95 0
-423 -21 0
-423 -65 0
-423 -5 0
423 -77 -95 21 65 5 0
-424 -38 0
-424 -21 0
-424 171 0
-424 3 0
-424 92 0
424 38 21 -171 -3 -92 0
-425 25 0
-425 65 0
-425 87 0
-425 -178 0
-425 -98 0
425 -25 -65 -87 178 98 0
421 422 423 424 425 0
-426 -109 0
-426 -17 0
-426 -104 0
-426 -12 0
-426 136 0
426 109 17 104 12 -136 0
-427 -111 0
-427 88 0
-427 -77 0
-427 -28 0
-427 69 0
427 111 -88 77 28 -69 0
-428 13 0
-428 66 0
-428 49 0
-428 120 0
-428 52 0
428 -13 -66 -49 -120 -52 0
-429 7 0
-429 -59 0
-429 98 0
-429 26 0
-429 -18 0
429 -7 59 -98 -26 18 0
-430 51 0
-430 -176 0
-430 190 0
-430 -160 0
-430 92 0
430 -51 176 -190 160 -92 0
426 427 428 429 430 0
